c This cnf file is generated with the following input: k = 3, n = 150, r = 0.2
p cnf 150 30
53 -123 -79 0
-50 8 95 0
-49 34 -138 0
17 49 22 0
32 -133 124 0
100 119 24 0
-19 -43 142 0
115 -133 79 0
99 19 79 0
-52 -149 -127 0
-18 -30 -95 0
16 67 6 0
99 -120 45 0
-82 -72 -74 0
-52 136 -48 0
-3 -101 -10 0
33 85 -108 0
49 -36 91 0
96 -3 70 0
-83 66 78 0
35 -100 -74 0
-5 -101 6 0
-17 -114 110 0
7 -43 45 0
146 133 119 0
-19 70 -88 0
150 -87 107 0
-65 6 44 0
-81 -23 76 0
-113 104 124 0
